c is-sat
p cnf 12 80
-6 -11 -12 0
7 8 -5 0
-1 6 -7 0
-8 4 -11 0
-4 -11 -9 0
-5 4 9 0
1 -7 6 0
11 -6 -1 0
6 -5 -8 0
-2 -9 -10 0
-10 -5 -9 0
5 -9 -3 0
7 5 4 0
-2 -4 -8 0
-1 -5 -10 0
-9 -2 -7 0
-12 -4 -1 0
-10 -11 4 0
7 3 -12 0
12 8 -10 0
10 -9 6 0
-4 -8 -11 0
-2 -9 -8 0
11 -8 -7 0
-10 -8 5 0
6 -7 -9 0
-3 -10 -7 0
-11 3 12 0
8 -2 -12 0
4 -7 -12 0
3 -5 -2 0
-1 -3 -8 0
8 -10 -6 0
-7 -3 5 0
-9 8 12 0
-5 -6 -10 0
7 -6 -2 0
2 3 -12 0
-6 -7 -1 0
3 -12 -2 0
10 -1 -8 0
-12 6 -8 0
12 11 -8 0
-11 -5 1 0
-11 -3 8 0
2 -7 -1 0
-6 10 -2 0
-9 1 5 0
-10 6 -8 0
-2 -8 1 0
-6 -10 1 0
3 9 11 0
-9 11 1 0
-1 -7 -6 0
8 9 -7 0
-11 9 3 0
-4 -10 -6 0
12 -1 7 0
-8 -9 6 0
-8 -2 -1 0
-2 -9 12 0
-11 -12 -10 0
-2 -11 -1 0
-5 12 1 0
-2 -5 3 0
-7 11 -8 0
2 12 -11 0
-1 10 6 0
6 -7 -12 0
-6 1 -4 0
12 -2 -9 0
-3 -5 1 0
-4 12 -10 0
-9 -12 4 0
-4 3 2 0
-12 1 -11 0
8 7 -6 0
12 -5 -1 0
7 -10 -4 0
-3 -8 -5 0
